c Source: inf-power (1-hop neighborhood of node 2663)
c n=14, m=27, circuit_rank=14
c Augmented with 4 edges for Eulerian condition
p sp 14
e 2 12
e 7 9
e 7 8
e 7 13
e 7 10
e 2 11
e 9 13
e 2 6
e 2 7
e 2 9
e 8 12
e 2 8
e 11 12
e 2 13
e 2 10
e 4 6
e 1 2
e 1 3
e 2 4
e 8 11
e 2 5
e 2 3
e 8 9
e 5 7
e 8 14
e 11 14
e 12 13
